Input parent directory: Set parameter Username
Set parameter LicenseID to value 2696634
Academic license - for non-commercial use only - expires 2026-08-19
Enter the number of nodes:Enter the maximum number of buckets you want:Gurobi Optimizer version 12.0.3 build v12.0.3rc0 (linux64 - "Linux Mint 22.1")

CPU model: 13th Gen Intel(R) Core(TM) i7-13700H, instruction set [SSE2|AVX|AVX2]
Thread count: 20 physical cores, 20 logical processors, using up to 20 threads

Optimize a model with 1269053 rows, 278482 columns and 3923938 nonzeros
Model fingerprint: 0xe365a8e8
Variable types: 277942 continuous, 540 integer (0 binary)
Coefficient statistics:
  Matrix range     [1e+00, 4e+00]
  Objective range  [2e-03, 8e+00]
  Bounds range     [1e+00, 1e+00]
  RHS range        [1e+00, 1e+03]
Presolve removed 817701 rows and 181556 columns (presolve time = 5s)...
Presolve removed 1178504 rows and 257885 columns
Presolve time: 8.54s
Presolved: 90549 rows, 20597 columns, 283627 nonzeros
Variable types: 20057 continuous, 540 integer (540 binary)
Found heuristic solution: objective 92.3860045
Found heuristic solution: objective 92.5304740
Found heuristic solution: objective 92.7336343
Performing another presolve...
Presolve removed 5838 rows and 769 columns
Presolve time: 2.70s

Deterministic concurrent LP optimizer: primal and dual simplex (primal and dual model)
Showing primal log only...

Root relaxation presolved: 84681 rows, 19808 columns, 284807 nonzeros


Root simplex log...

Iteration    Objective       Primal Inf.    Dual Inf.      Time
       0    8.8000000e+01   1.200000e+01   3.600010e+07     12s
    7480    9.2977819e+01   0.000000e+00   1.139052e+01     15s
   10348    9.3000000e+01   0.000000e+00   0.000000e+00     18s
   10348    9.3000000e+01   0.000000e+00   0.000000e+00     18s
Concurrent spin time: 4.46s (can be avoided by choosing Method=3)

Solved with primal simplex

Root relaxation: objective 9.300000e+01, 10348 iterations, 10.17 seconds (8.19 work units)
Total elapsed time = 22.39s (DegenMoves)
Total elapsed time = 27.90s (DegenMoves)

    Nodes    |    Current Node    |     Objective Bounds      |     Work
 Expl Unexpl |  Obj  Depth IntInf | Incumbent    BestBd   Gap | It/Node Time

     0     0   93.00000    0   54   92.73363   93.00000  0.29%     -   60s
     0     0   93.00000    0  174   92.73363   93.00000  0.29%     -   72s
     0     0   93.00000    0  173   92.73363   93.00000  0.29%     -   72s
     0     0   93.00000    0   94   92.73363   93.00000  0.29%     -  100s

Cutting planes:
  Gomory: 6
  Cover: 2
  Implied bound: 154
  Clique: 8
  MIR: 186
  Flow cover: 48
  RLT: 406
  Relax-and-lift: 22
  BQP: 412

Explored 1 nodes (101178 simplex iterations) in 100.69 seconds (127.34 work units)
Thread count was 20 (of 20 available processors)

Solution count 3: 92.7336 92.5305 92.386 

Solve interrupted
Best objective 9.273363431151e+01, best bound 9.300000000000e+01, gap 0.2872%
Initial Pareto point saved: c=0.7336343115124153, e=15.0
Current value of counter is 0
||||||||||||||||||||||||||||||||||||||||||||||||||||||||||||||||||||||||||||||||||||||||
THIS IS THE INITIAL K1 0.7336343115124153
THIS IS THE INITIAL K2 15.0
15.0  is the current explainability; will require a strict improvement
Gurobi Optimizer version 12.0.3 build v12.0.3rc0 (linux64 - "Linux Mint 22.1")

CPU model: 13th Gen Intel(R) Core(TM) i7-13700H, instruction set [SSE2|AVX|AVX2]
Thread count: 20 physical cores, 20 logical processors, using up to 20 threads

Optimize a model with 1269055 rows, 278482 columns and 3924429 nonzeros
Model fingerprint: 0x69cbd5aa
Variable types: 277942 continuous, 540 integer (0 binary)
Coefficient statistics:
  Matrix range     [1e+00, 4e+00]
  Objective range  [2e-03, 8e+00]
  Bounds range     [1e+00, 1e+00]
  RHS range        [1e+00, 1e+03]

MIP start from previous solve did not produce a new incumbent solution
MIP start from previous solve violates constraint dec_correct_0 by 0.999999000

Presolve time: 0.22s

Explored 0 nodes (0 simplex iterations) in 0.75 seconds (0.61 work units)
Thread count was 1 (of 20 available processors)

Solution count 0

Solve interrupted
Best objective -, best bound -, gap -
[INFO] Solver returned status 11 (no usable solution).
No further improvement

Interrupt request received

Interrupt request received
